TCS_Benchmarks/redos_fix/corpus1_output_distinct_782_781_0_0.smt2
(set-logic QF_S)
(declare-const x String)
(assert (str.in.re x (re.inter  (re.++ (re.+  (re.union  (re.++  (re.union  (re.++  (str.to.re "\u{68}") (re.++  (str.to.re "\u{74}") (re.++  (str.to.re "\u{74}")  (str.to.re "\u{70}"))))  (re.++  (str.to.re "\u{68}") (re.++  (str.to.re "\u{74}") (re.++  (str.to.re "\u{74}") (re.++  (str.to.re "\u{70}")  (str.to.re "\u{73}")))))) (re.++  (str.to.re "\u{3a}") (re.++  (str.to.re "\u{2f}")  (str.to.re "\u{2f}"))))  (re.++  (str.to.re "\u{77}") (re.++  (str.to.re "\u{77}") (re.++  (str.to.re "\u{77}")  (str.to.re "\u{2e}"))))) ) (re.+  (re.union  (str.to.re "\u{2e}") (re.union (re.range "\u{30}" "\u{39}") (re.union  (str.to.re "\u{2d}") (re.union (re.range "\u{41}" "\u{5a}") (re.union (re.range "\u{61}" "\u{7a}")  (str.to.re "\u{5f}")))))) ))  (re.++ (re.+  (re.union  (re.++  (re.union  (re.++  (str.to.re "\u{68}") (re.++  (str.to.re "\u{74}") (re.++  (str.to.re "\u{74}")  (str.to.re "\u{70}"))))  (re.++  (str.to.re "\u{68}") (re.++  (str.to.re "\u{74}") (re.++  (str.to.re "\u{74}") (re.++  (str.to.re "\u{70}")  (str.to.re "\u{73}")))))) (re.++  (str.to.re "\u{3a}") (re.++  (str.to.re "\u{2f}")  (str.to.re "\u{2f}"))))  (re.++  (str.to.re "\u{77}") (re.++  (str.to.re "\u{77}") (re.++  (str.to.re "\u{77}")  (str.to.re "\u{2e}"))))) ) (re.+  (re.union  (str.to.re "\u{2e}") (re.union (re.range "\u{30}" "\u{39}") (re.union  (str.to.re "\u{2d}") (re.union (re.range "\u{41}" "\u{5a}") (re.union (re.range "\u{61}" "\u{7a}")  (str.to.re "\u{5f}")))))) )) )))
(check-sat)
(get-model)