TCS_Benchmarks/redos_fix/corpus1_output_distinct_782_781_0_0.txt
((((http|https):\/\/)|(www\.))+)([\.0-9\-A-Za-z_]+)
((((http|https):\/\/)|(www\.))+)([\.0-9\-A-Za-z_]+)